
Gurobi 10.0.3 (linux64, gurobi_cl) logging started Thu Nov  2 11:34:05 2023

Set parameter Username
Set parameter TimeLimit to value 3600
Set parameter LogFile to value "RCPSP_416.log"
Set parameter Threads to value 32
Academic license - for non-commercial use only - expires 2024-10-30
Using license file /home/jrivera6/gurobi-licenses/v1003/compute-0-39/gurobi.lic

Gurobi Optimizer version 10.0.3 build v10.0.3rc0 (linux64)
Copyright (c) 2023, Gurobi Optimization, LLC

Read MPS format model from file RCPSP_416.mps
Reading time = 0.01 seconds
RCPSP_416: 5349 rows, 2080 columns, 17994 nonzeros

CPU model: Intel(R) Xeon(R) Gold 6242 CPU @ 2.80GHz, instruction set [SSE2|AVX|AVX2|AVX512]
Thread count: 32 physical cores, 32 logical processors, using up to 32 threads

Optimize a model with 5349 rows, 2080 columns and 17994 nonzeros
Model fingerprint: 0x1423b155
Variable types: 32 continuous, 2048 integer (2048 binary)
Coefficient statistics:
  Matrix range     [1e+00, 2e+02]
  Objective range  [1e+00, 1e+00]
  Bounds range     [1e+00, 1e+00]
  RHS range        [1e+00, 2e+02]
Presolve removed 3386 rows and 1349 columns
Presolve time: 0.25s
Presolved: 1963 rows, 731 columns, 6468 nonzeros
Variable types: 31 continuous, 700 integer (700 binary)

Root relaxation: objective 6.200000e+01, 266 iterations, 0.00 seconds (0.00 work units)

    Nodes    |    Current Node    |     Objective Bounds      |     Work
 Expl Unexpl |  Obj  Depth IntInf | Incumbent    BestBd   Gap | It/Node Time

     0     0   62.00000    0    3          -   62.00000      -     -    0s
H    0     0                      65.0000000   62.00000  4.62%     -    0s
     0     0   63.00000    0   16   65.00000   63.00000  3.08%     -    0s
     0     0   63.00000    0    2   65.00000   63.00000  3.08%     -    2s
H    0     0                      64.0000000   63.00000  1.56%     -    3s
     0     0   63.00000    0    2   64.00000   63.00000  1.56%     -    3s
     0     0   63.00000    0    4   64.00000   63.00000  1.56%     -    3s
     0     0   63.00000    0    4   64.00000   63.00000  1.56%     -    3s

Cutting planes:
  Learned: 5
  Cover: 3
  Implied bound: 5
  Clique: 4
  MIR: 2

Explored 1 nodes (1548 simplex iterations) in 3.81 seconds (0.32 work units)
Thread count was 32 (of 32 available processors)

Solution count 2: 64 65 

Optimal solution found (tolerance 1.00e-04)
Best objective 6.400000000000e+01, best bound 6.400000000000e+01, gap 0.0000%

Wrote result file 'RCPSP_416.sol'

